QBPP_HJ+_40_025_10_4
40 195 272
11 34 3 35 5 42 48 34 10 3 28 3 3 24 16 16 19 36 24 45 32 46 2 24 22 26 22 11 8 47 36 27 43 25 23 23 40 29 8 42
    0    0    0    0    0    0    0    0    0    0    0    0    0   79    0   29   21    0   64    0   42    0    0    0    0    0    0    0    0    0    0   31   79    0    0    0   67   82   71    0
    0    0    0    0   31   74    0    0    0    0    0    0   80   67    0    0    0    0    0    0    7   99   73    0    0    6    0    0   96    0   43    0    0   24   69    9    0   74   52    0
    0    0    0    0    0   27    0    0    0   43   48    0    0   92    0   33    0    0   79    0    0    0    0    0   70    0    0    0    0    0   13    0    4    0    0    0    0    0   71    0
    0    0    0    0    0    0   54   59    0   25    0    0   42    7    0    0   20    0    0    0    0   61    0    0   50   61   75    0    0    0    0   51    0    0    0    0    0    0    0   46
    0   31    0    0    0   98   40    0    0    0    0    0    0    0    0    0   71   24    0    0    0    2    0    0    0    0    0    0    0    0    0    0    0    0    0    0    0   48    0   50
    0   74   27    0   98    0    0    0   14    0   95    0    0   51   41    0    0    0    0    0    0    0    0   91    0    0    0    0    0    0    0    0    0   27   76    0   42    0    0    3
    0    0    0   54   40    0    0    0    0    0    0    0    0   75    0    0    0    0    0    0    0    0   99    0    0    0    0    0    0    0    0    0    0    0    0   67    0    0    0    0
    0    0    0   59    0    0    0    0    0    0    0    0   69    0    0    0    0    0   49   17    0    0    0   63    0    0   53    7   93   81   56    0    0    0    0    0    4    0    0    0
    0    0    0    0    0   14    0    0    0    0    0    0   17    0   20    0    0    0    0    0    0    0    0   72   63    0    0    0    0    0    0    0    0   48    0    0   25   64    0    0
    0    0   43   25    0    0    0    0    0    0    0    0    0    0    0    0    0    0    0    0    0    0   10    0   59    0    0   85    0    0   63    0   44   97    0    0    0    0    0    0
    0    0   48    0    0   95    0    0    0    0    0    0    0   59    0    0    0    0    0   58    0   46    0    0    0    0   32    0   69   35    0    0    0    0    0    0    0    0    0    0
    0    0    0    0    0    0    0    0    0    0    0    0    0    0   15   93    0    0    0    0    0    0   95    0   35   42    0   92    0    0    0    0   30    0    0    0    0    0    0    0
    0   80    0   42    0    0    0   69   17    0    0    0    0    0    0    0    0    0    0    0    0   14    0   26    0   97    0    0    0    0    0   54    0   15    0    0   73    0    0    0
   79   67   92    7    0   51   75    0    0    0   59    0    0    0    0    0    0    0    0    0    0    0    0    0    0    0    0    0    0    0   87    0    0    0   25    0   92    0    0    0
    0    0    0    0    0   41    0    0   20    0    0   15    0    0    0    0    0    0    0    0   55    0   85    0    0    0    0    0    0    0    0    0    0    0    0    3   87   91    0    0
   29    0   33    0    0    0    0    0    0    0    0   93    0    0    0    0    0    0    0    0    0    0   43    0    0   21    0   92    0    0    0    0   67   65    0    0    0    0    0    0
   21    0    0   20   71    0    0    0    0    0    0    0    0    0    0    0    0    0    0    0    0    0    0    0   30    0    0    0   78    0    0    0    0    0    0   36    0    0    0    0
    0    0    0    0   24    0    0    0    0    0    0    0    0    0    0    0    0    0    0    0    0    0    0    0    0    0    0    0    0    0    0    0   60    0    0   81    0    0    0    0
   64    0   79    0    0    0    0   49    0    0    0    0    0    0    0    0    0    0    0    0    0    0    0   70    0    0    0   52    0    0   33    0   85   86    5    0    0    0   63    0
    0    0    0    0    0    0    0   17    0    0   58    0    0    0    0    0    0    0    0    0   99    0    0   64    0    7   53    0    0    0   91    0    0   93    0   26    0    0   25    0
   42    7    0    0    0    0    0    0    0    0    0    0    0    0   55    0    0    0    0   99    0    0    0    0    0   74    0   74    0    0    0    0    0    0    0   83    0   18    0    0
    0   99    0   61    2    0    0    0    0    0   46    0   14    0    0    0    0    0    0    0    0    0   52   23    0   46    0    0   39    0    0   25    0    0   14    0    0    0    0    0
    0   73    0    0    0    0   99    0    0   10    0   95    0    0   85   43    0    0    0    0    0   52    0   22    0    0   93    0    0    0    0   77    0    0    0    7   26    9   39    0
    0    0    0    0    0   91    0   63   72    0    0    0   26    0    0    0    0    0   70   64    0   23   22    0    0   28    7    0   63   53    0    0    0   79    0   96    0   79    0    0
    0    0   70   50    0    0    0    0   63   59    0   35    0    0    0    0   30    0    0    0    0    0    0    0    0    0    0   89    3    0    0    0    0    0    0    0    0    0    0    0
    0    6    0   61    0    0    0    0    0    0    0   42   97    0    0   21    0    0    0    7   74   46    0   28    0    0   17    0    0    0    0   22    0    0   59    0    0    0    0    0
    0    0    0   75    0    0    0   53    0    0   32    0    0    0    0    0    0    0    0   53    0    0   93    7    0   17    0   61    0    0    0    9    0    0    0    0    0   68    0   12
    0    0    0    0    0    0    0    7    0   85    0   92    0    0    0   92    0    0   52    0   74    0    0    0   89    0   61    0    0    0   47    0    0    0    0    0    3   58    0    0
    0   96    0    0    0    0    0   93    0    0   69    0    0    0    0    0   78    0    0    0    0   39    0   63    3    0    0    0    0  100    0    0   23   82    0   51    0    0    0    0
    0    0    0    0    0    0    0   81    0    0   35    0    0    0    0    0    0    0    0    0    0    0    0   53    0    0    0    0  100    0    0    0    0    0    0    0    0    0    0    0
    0   43   13    0    0    0    0   56    0   63    0    0    0   87    0    0    0    0   33   91    0    0    0    0    0    0    0   47    0    0    0    0    0    0    0    0    0    0    0    0
   31    0    0   51    0    0    0    0    0    0    0    0   54    0    0    0    0    0    0    0    0   25   77    0    0   22    9    0    0    0    0    0    7   48    0    0    0    0    0    0
   79    0    4    0    0    0    0    0    0   44    0   30    0    0    0   67    0   60   85    0    0    0    0    0    0    0    0    0   23    0    0    7    0   30    0    0    0    0    0    0
    0   24    0    0    0   27    0    0   48   97    0    0   15    0    0   65    0    0   86   93    0    0    0   79    0    0    0    0   82    0    0   48   30    0    0   84    0    0   24    0
    0   69    0    0    0   76    0    0    0    0    0    0    0   25    0    0    0    0    5    0    0   14    0    0    0   59    0    0    0    0    0    0    0    0    0   80    0    0    5    0
    0    9    0    0    0    0   67    0    0    0    0    0    0    0    3    0   36   81    0   26   83    0    7   96    0    0    0    0   51    0    0    0    0   84   80    0    4    0   73    0
   67    0    0    0    0   42    0    4   25    0    0    0   73   92   87    0    0    0    0    0    0    0   26    0    0    0    0    3    0    0    0    0    0    0    0    4    0    0    0    0
   82   74    0    0   48    0    0    0   64    0    0    0    0    0   91    0    0    0    0    0   18    0    9   79    0    0   68   58    0    0    0    0    0    0    0    0    0    0   89    0
   71   52   71    0    0    0    0    0    0    0    0    0    0    0    0    0    0    0   63   25    0    0   39    0    0    0    0    0    0    0    0    0    0   24    5   73    0   89    0    0
    0    0    0   46   50    3    0    0    0    0    0    0    0    0    0    0    0    0    0    0    0    0    0    0    0    0   12    0    0    0    0    0    0    0    0    0    0    0    0    0
